79, 7179
11305, 576
12412, 565
7921, 574
3214, 723
8385, 579
6428, 807
7354, 592
4455, 561
6968, 951
10509, 509
6993, 820
7244, 665
3880, 761
11342, 737
2535, 503
3988, 914
6785, 958
9460, 759
3550, 602
5204, 753
8553, 551
9750, 840
12429, 773
11816, 913
8156, 999
10637, 877
8064, 768
6887, 855
12477, 812
11618, 925
7320, 665
5210, 717
4568, 739
9675, 868
9338, 580
11555, 845
6840, 930
11289, 927
5576, 894
6801, 554
7042, 848
6396, 727
10712, 911
4836, 740
11907, 704
10909, 822
5366, 689
11788, 600
7343, 865
11269, 932
2808, 775
7480, 985
5374, 726
2695, 735
10035, 925
4934, 903
8064, 732
4676, 779
10604, 503
11864, 738
8118, 987
7382, 681
5171, 614
5345, 605
10759, 977
3512, 607
7793, 728
2577, 911
6807, 712
9059, 639
6100, 682
9252, 661
8336, 715
9049, 612
9851, 606
3488, 755
3880, 970
5836, 933
9168, 892